projected/problems_b25_r0_d7_m100_s666/_DIMACS/b25_d7_r0_s666_027.cnf
p cnf 225 363 24
c p show 1 2 3 4 5 6 7 8 9 10 11 12 13 14 15 16 17 18 19 20 21 22 23 24
-86 -22 0
-86 -14 0
-87 20 -23 0
-88 87 0
-88 86 0
-89 4 0
-89 12 0
-90 7 0
-90 -7 0
-91 90 0
-91 89 0
-92 91 88 0
-93 13 0
-93 -18 0
-94 -24 14 0
-95 94 93 0
-96 9 6 0
-97 -4 0
-97 23 0
-98 97 96 0
-99 4 -23 0
-100 -9 0
-100 -6 0
-101 100 99 0
-102 101 0
-102 98 0
-103 102 0
-103 95 0
-104 103 0
-104 92 0
-105 -5 0
-105 4 0
-106 10 -4 0
-107 106 0
-107 105 0
-108 -13 3 0
-109 22 0
-109 4 0
-110 109 0
-110 108 0
-111 110 0
-111 107 0
-112 -1 0
-112 22 0
-113 -22 0
-113 1 0
-114 113 112 0
-115 -10 -3 0
-116 115 0
-116 114 0
-117 -20 0
-117 17 0
-118 -22 0
-118 16 0
-119 118 0
-119 117 0
-120 119 116 0
-121 120 0
-121 111 0
-122 121 104 0
-123 -3 -13 0
-124 3 0
-124 -3 0
-125 124 0
-125 123 0
-126 18 -15 0
-127 4 0
-127 10 0
-128 127 0
-128 126 0
-129 128 0
-129 125 0
-130 11 2 0
-131 21 -17 0
-132 131 0
-132 130 0
-133 -21 -10 0
-134 -5 -18 0
-135 18 5 0
-136 135 0
-136 134 0
-137 136 0
-137 133 0
-138 5 0
-138 18 0
-139 -18 0
-139 -5 0
-140 139 138 0
-141 21 0
-141 10 0
-142 141 0
-142 140 0
-143 142 137 0
-144 143 132 0
-145 144 129 0
-146 18 0
-146 -21 0
-147 -7 -9 0
-148 147 0
-148 146 0
-149 -10 0
-149 13 0
-150 8 0
-150 18 0
-151 150 149 0
-152 151 0
-152 148 0
-153 22 17 0
-154 20 0
-154 2 0
-155 154 0
-155 153 0
-156 16 -1 0
-157 3 19 0
-158 157 0
-158 156 0
-159 158 155 0
-160 159 152 0
-161 160 145 0
-162 161 122 0
-163 11 0
-163 16 0
-164 -16 0
-164 -11 0
-165 164 163 0
-166 -8 0
-166 19 0
-167 166 0
-167 165 0
-168 -19 6 0
-169 -6 19 0
-170 169 0
-170 168 0
-171 21 0
-171 -13 0
-172 13 0
-172 -21 0
-173 172 171 0
-174 173 170 0
-175 174 0
-175 167 0
-176 16 -16 0
-177 176 0
-178 -12 0
-178 -24 0
-179 178 0
-179 177 0
-180 22 0
-180 -24 0
-181 -18 0
-181 -6 0
-182 181 180 0
-183 182 0
-183 179 0
-184 -22 24 0
-185 18 6 0
-186 185 0
-186 184 0
-187 -16 0
-187 16 0
-188 187 0
-189 12 24 0
-190 189 188 0
-191 190 0
-191 186 0
-192 191 183 0
-193 192 175 0
-194 -10 -11 0
-195 11 10 0
-196 195 0
-196 194 0
-197 19 -1 0
-198 1 -19 0
-199 198 0
-199 197 0
-200 199 0
-200 196 0
-201 2 16 0
-202 14 -13 0
-203 202 0
-203 201 0
-204 203 200 0
-205 15 6 0
-206 -18 0
-206 -7 0
-207 206 0
-207 205 0
-208 -19 -24 0
-209 -15 -3 0
-210 209 0
-210 208 0
-211 210 207 0
-212 211 204 0
-213 212 193 0
-214 10 0
-214 11 0
-215 -11 0
-215 -10 0
-216 215 214 0
-217 -19 0
-217 1 0
-218 -1 0
-218 19 0
-220 218 217 0
-221 220 216 0
-222 -2 0
-222 -16 0
-223 -14 0
-223 13 0
-224 223 222 0
-25 224 0
-25 221 0
-26 -15 0
-26 -6 0
-219 18 7 0
-225 219 26 0
-27 19 0
-27 24 0
-28 15 0
-28 3 0
-29 28 27 0
-39 29 0
-39 225 0
-45 39 0
-45 25 0
-51 -11 -16 0
-57 16 11 0
-30 57 0
-30 51 0
-31 8 -19 0
-32 31 30 0
-33 19 0
-33 -6 0
-34 6 0
-34 -19 0
-35 34 33 0
-36 -21 13 0
-37 -13 21 0
-38 37 0
-38 36 0
-40 38 0
-40 35 0
-41 40 32 0
-42 186 190 0
-43 179 182 0
-44 43 0
-44 42 0
-46 44 0
-46 41 0
-47 46 45 0
-48 47 0
-48 213 0
-49 -24 22 0
-50 -6 -4 0
-52 50 49 0
-53 9 0
-53 14 0
-54 -5 0
-54 -19 0
-55 54 0
-55 53 0
-56 55 52 0
-58 -3 0
-58 -17 0
-59 3 0
-59 -7 0
-60 59 58 0
-61 -24 -22 0
-62 34 0
-62 61 0
-63 62 0
-63 60 0
-64 63 56 0
-65 4 0
-65 8 0
-66 20 -10 0
-67 66 0
-67 65 0
-68 -15 0
-68 12 0
-69 7 0
-69 -16 0
-70 69 68 0
-71 70 67 0
-72 23 0
-72 -17 0
-73 16 4 0
-74 73 0
-74 72 0
-75 20 0
-75 12 0
-76 15 0
-76 -20 0
-77 76 75 0
-78 -15 20 0
-79 -20 -12 0
-80 79 78 0
-81 80 0
-81 77 0
-82 81 74 0
-83 82 0
-83 71 0
-84 83 64 0
-85 84 48 0
85 162 0
-97 -99 0
-99 -97 0
-100 -96 0
-96 -100 0
-136 -140 0
-141 -133 0
-196 -216 0
-199 -220 0
-200 -221 0
-221 -200 0
-201 -222 0
-202 -223 0
-203 -224 0
-224 -203 0
-25 -204 0
-204 -25 0
-26 -205 0
-205 -26 0
-206 -219 0
-207 -225 0
-225 -207 0
-27 -208 0
-209 -28 0
-28 -209 0
-29 -210 0
-39 -211 0
-211 -39 0
-212 -45 0
-45 -212 0
-30 -165 0
-165 -30 0
-31 -166 0
-166 -31 0
-167 -32 0
-32 -167 0
-170 -35 0
-35 -170 0
-38 -173 0
-40 -174 0
-41 -175 0
-180 -184 0
-184 -180 0
-181 -185 0
-185 -181 0
-186 -182 0
-182 -186 0
-177 -188 0
-188 -177 0
-178 -189 0
-189 -178 0
-190 -179 0
-44 -192 0
-46 -193 0
-193 -46 0
-76 -78 0
-78 -76 0
-79 -75 0
-75 -79 0
