projected/problems_b25_r0_d7_m100_s666/b25_d7_r0_s666_027.smt2
(set-logic QF_UF)
(declare-fun A0 () Bool)
(declare-fun A1 () Bool)
(declare-fun A2 () Bool)
(declare-fun A3 () Bool)
(declare-fun A4 () Bool)
(declare-fun A5 () Bool)
(declare-fun A6 () Bool)
(declare-fun A7 () Bool)
(declare-fun A8 () Bool)
(declare-fun A9 () Bool)
(declare-fun A10 () Bool)
(declare-fun A11 () Bool)
(declare-fun A12 () Bool)
(declare-fun A14 () Bool)
(declare-fun A15 () Bool)
(declare-fun A16 () Bool)
(declare-fun A17 () Bool)
(declare-fun A18 () Bool)
(declare-fun A19 () Bool)
(declare-fun A20 () Bool)
(declare-fun A21 () Bool)
(declare-fun A22 () Bool)
(declare-fun A23 () Bool)
(declare-fun A24 () Bool)
(assert (let ((.def_0 (not A14))) (let ((.def_1 (not A22))) (let ((.def_2 (and .def_1 .def_0))) (let ((.def_3 (not .def_2))) (let ((.def_4 (not A23))) (let ((.def_5 (or A20 .def_4))) (let ((.def_6 (not .def_5))) (let ((.def_7 (or .def_6 .def_3))) (let ((.def_8 (not A11))) (let ((.def_9 (not A3))) (let ((.def_10 (or .def_9 .def_8))) (let ((.def_11 (not A6))) (let ((.def_12 (or .def_11 A6))) (let ((.def_13 (or .def_12 .def_10))) (let ((.def_14 (and .def_13 .def_7))) (let ((.def_15 (not A12))) (let ((.def_16 (or .def_15 A18))) (let ((.def_17 (not A24))) (let ((.def_18 (or .def_17 A14))) (let ((.def_19 (not .def_18))) (let ((.def_20 (and .def_19 .def_16))) (let ((.def_21 (and .def_9 A23))) (let ((.def_22 (not .def_21))) (let ((.def_23 (not A5))) (let ((.def_24 (not A8))) (let ((.def_25 (and .def_24 .def_23))) (let ((.def_26 (not .def_25))) (let ((.def_27 (= .def_26 .def_22))) (let ((.def_28 (not .def_27))) (let ((.def_29 (or .def_28 .def_20))) (let ((.def_30 (or .def_29 .def_14))) (let ((.def_31 (not A4))) (let ((.def_32 (and .def_31 A3))) (let ((.def_33 (or A9 .def_9))) (let ((.def_34 (and .def_33 .def_32))) (let ((.def_35 (not .def_34))) (let ((.def_36 (not A2))) (let ((.def_37 (and A12 .def_36))) (let ((.def_38 (or .def_1 .def_9))) (let ((.def_39 (or .def_38 .def_37))) (let ((.def_40 (or .def_39 .def_35))) (let ((.def_41 (not .def_40))) (let ((.def_42 (not A0))) (let ((.def_43 (= .def_1 .def_42))) (let ((.def_44 (not A9))) (let ((.def_45 (or .def_44 .def_36))) (let ((.def_46 (not .def_45))) (let ((.def_47 (or .def_46 .def_43))) (let ((.def_48 (not A17))) (let ((.def_49 (or A20 .def_48))) (let ((.def_50 (not A16))) (let ((.def_51 (or A22 .def_50))) (let ((.def_52 (or .def_51 .def_49))) (let ((.def_53 (and .def_52 .def_47))) (let ((.def_54 (not .def_53))) (let ((.def_55 (and .def_54 .def_41))) (let ((.def_56 (not .def_55))) (let ((.def_57 (and .def_56 .def_30))) (let ((.def_58 (not .def_57))) (let ((.def_59 (and A2 A12))) (let ((.def_60 (not .def_59))) (let ((.def_61 (or .def_36 A2))) (let ((.def_62 (not .def_61))) (let ((.def_63 (and .def_62 .def_60))) (let ((.def_64 (not .def_63))) (let ((.def_65 (not A15))) (let ((.def_66 (or A18 .def_65))) (let ((.def_67 (or .def_9 .def_44))) (let ((.def_68 (not .def_67))) (let ((.def_69 (and .def_68 .def_66))) (let ((.def_70 (not .def_69))) (let ((.def_71 (or .def_70 .def_64))) (let ((.def_72 (not .def_71))) (let ((.def_73 (not A1))) (let ((.def_74 (not A10))) (let ((.def_75 (and .def_74 .def_73))) (let ((.def_76 (not A21))) (let ((.def_77 (and .def_76 A17))) (let ((.def_78 (or .def_77 .def_75))) (let ((.def_79 (not A18))) (let ((.def_80 (= .def_79 A4))) (let ((.def_81 (and A21 A9))) (let ((.def_82 (= .def_81 .def_80))) (let ((.def_83 (and .def_82 .def_78))) (let ((.def_84 (not .def_83))) (let ((.def_85 (or .def_84 .def_72))) (let ((.def_86 (and A18 .def_76))) (let ((.def_87 (or .def_11 .def_24))) (let ((.def_88 (and .def_87 .def_86))) (let ((.def_89 (or A9 .def_15))) (let ((.def_90 (not .def_89))) (let ((.def_91 (not A7))) (let ((.def_92 (or .def_91 .def_79))) (let ((.def_93 (not .def_92))) (let ((.def_94 (or .def_93 .def_90))) (let ((.def_95 (and .def_94 .def_88))) (let ((.def_96 (and .def_1 .def_48))) (let ((.def_97 (not A20))) (let ((.def_98 (or .def_97 .def_73))) (let ((.def_99 (or .def_98 .def_96))) (let ((.def_100 (not .def_99))) (let ((.def_101 (and .def_50 A0))) (let ((.def_102 (not .def_101))) (let ((.def_103 (not A19))) (let ((.def_104 (and .def_36 .def_103))) (let ((.def_105 (not .def_104))) (let ((.def_106 (and .def_105 .def_102))) (let ((.def_107 (or .def_106 .def_100))) (let ((.def_108 (or .def_107 .def_95))) (let ((.def_109 (or .def_108 .def_85))) (let ((.def_110 (or .def_109 .def_58))) (let ((.def_111 (not .def_110))) (let ((.def_112 (= .def_74 A9))) (let ((.def_113 (= .def_42 .def_103))) (let ((.def_114 (and .def_113 .def_112))) (let ((.def_115 (not .def_114))) (let ((.def_116 (or A1 A16))) (let ((.def_117 (or A14 .def_15))) (let ((.def_118 (and .def_117 .def_116))) (let ((.def_119 (not .def_118))) (let ((.def_120 (and .def_119 .def_115))) (let ((.def_121 (not .def_120))) (let ((.def_122 (and .def_65 .def_23))) (let ((.def_123 (not .def_122))) (let ((.def_124 (and .def_79 .def_11))) (let ((.def_125 (and .def_124 .def_123))) (let ((.def_126 (not .def_125))) (let ((.def_127 (and A19 A24))) (let ((.def_128 (or .def_65 .def_36))) (let ((.def_129 (not .def_128))) (let ((.def_130 (or .def_129 .def_127))) (let ((.def_131 (and .def_130 .def_126))) (let ((.def_132 (not .def_131))) (let ((.def_133 (or .def_132 .def_121))) (let ((.def_134 (not .def_133))) (let ((.def_135 (= .def_50 A10))) (let ((.def_136 (not .def_135))) (let ((.def_137 (or A7 .def_103))) (let ((.def_138 (not .def_137))) (let ((.def_139 (and .def_138 .def_136))) (let ((.def_140 (not .def_139))) (let ((.def_141 (= A5 A19))) (let ((.def_142 (not .def_141))) (let ((.def_143 (= A12 A21))) (let ((.def_144 (and .def_143 .def_142))) (let ((.def_145 (or .def_144 .def_140))) (let ((.def_146 (and A22 .def_17))) (let ((.def_147 (not .def_146))) (let ((.def_148 (and .def_79 .def_23))) (let ((.def_149 (not .def_148))) (let ((.def_150 (and .def_149 .def_147))) (let ((.def_151 (not .def_150))) (let ((.def_152 (= .def_50 .def_50))) (let ((.def_153 (not .def_152))) (let ((.def_154 (and .def_8 .def_17))) (let ((.def_155 (not .def_154))) (let ((.def_156 (or .def_155 .def_153))) (let ((.def_157 (= .def_156 .def_151))) (let ((.def_158 (and .def_157 .def_145))) (let ((.def_159 (not .def_158))) (let ((.def_160 (= .def_159 .def_134))) (let ((.def_161 (or .def_17 A22))) (let ((.def_162 (not .def_161))) (let ((.def_163 (and A5 A3))) (let ((.def_164 (and .def_163 .def_162))) (let ((.def_165 (or .def_24 .def_0))) (let ((.def_166 (and .def_31 .def_103))) (let ((.def_167 (not .def_166))) (let ((.def_168 (or .def_167 .def_165))) (let ((.def_169 (and .def_168 .def_164))) (let ((.def_170 (not .def_169))) (let ((.def_171 (or A2 A17))) (let ((.def_172 (not .def_171))) (let ((.def_173 (and A2 .def_11))) (let ((.def_174 (or .def_173 .def_172))) (let ((.def_175 (or .def_17 .def_1))) (let ((.def_176 (not .def_175))) (let ((.def_177 (and A5 .def_103))) (let ((.def_178 (not .def_177))) (let ((.def_179 (or .def_178 .def_176))) (let ((.def_180 (not .def_179))) (let ((.def_181 (and .def_180 .def_174))) (let ((.def_182 (or .def_181 .def_170))) (let ((.def_183 (not .def_182))) (let ((.def_184 (and A3 A7))) (let ((.def_185 (and .def_97 A9))) (let ((.def_186 (not .def_185))) (let ((.def_187 (and .def_186 .def_184))) (let ((.def_188 (not .def_187))) (let ((.def_189 (or A15 .def_8))) (let ((.def_190 (not .def_189))) (let ((.def_191 (or .def_11 A16))) (let ((.def_192 (not .def_191))) (let ((.def_193 (or .def_192 .def_190))) (let ((.def_194 (not .def_193))) (let ((.def_195 (and .def_194 .def_188))) (let ((.def_196 (and A23 .def_48))) (let ((.def_197 (and .def_50 .def_9))) (let ((.def_198 (not .def_197))) (let ((.def_199 (and .def_198 .def_196))) (let ((.def_200 (and A15 .def_97))) (let ((.def_201 (not .def_200))) (let ((.def_202 (or .def_97 .def_8))) (let ((.def_203 (not .def_202))) (let ((.def_204 (= .def_203 .def_201))) (let ((.def_205 (or .def_204 .def_199))) (let ((.def_206 (not .def_205))) (let ((.def_207 (or .def_206 .def_195))) (let ((.def_208 (and .def_207 .def_183))) (let ((.def_209 (not .def_208))) (let ((.def_210 (or .def_209 .def_160))) (let ((.def_211 (not .def_210))) (let ((.def_212 (and .def_211 .def_111))) (let ((.def_213 (not .def_212))) .def_213)))))))))))))))))))))))))))))))))))))))))))))))))))))))))))))))))))))))))))))))))))))))))))))))))))))))))))))))))))))))))))))))))))))))))))))))))))))))))))))))))))))))))))))))))))))))))))))))))))))))))))))))))))))))
(check-sat)
